tsp_instances/TSP20/instance123.tsp
NODE_COORD_SECTION
0 39 11
1 17 114
2 193 66
3 58 121
4 55 13
5 150 198
6 59 179
7 24 9
8 31 47
9 179 49
10 60 188
11 92 60
12 84 164
13 179 104
14 63 130
15 39 71
16 38 120
17 62 140
18 70 32
19 61 6
