tsp_instances/TSP20/instance123.opt.tour
TOUR_SECTION
1
5
20
19
12
10
3
14
6
13
11
7
18
15
4
17
2
16
9
8
-1